computational_data/real_data/solutions/wine_trial_006_lex.sol
Optimal - objective value 7.41666600
      0 r_0                         0                0.972222
      1 r_1                         0                0.972222
      2 r_2                         1                0.972222
      3 r_3                         1                0.944444
      4 r_4                         0                0.944444
      5 r_5                         0                0.944444
      6 r_6                         0                0.944444
      7 r_7                         0                0.916667
      8 r_8                         0                0.916667
      9 r_9                         0                0.916667
     10 r_10                        1                0.916667
     11 r_11                        0                0.916667
     12 r_12                        1                0.916667
     13 r_13                        0                0.916667
     14 r_14                        1                0.888889
     15 r_15                        1                0.861111
     16 b_0                         0                0.972222
     17 b_1                         1                0.972222
     18 b_2                         0                0.972222
     19 b_3                         0                0.944444
     20 b_4                         1                0.944444
     21 b_5                         0                0.944444
     22 b_6                         0                0.944444
     23 b_7                         0                0.916667
     24 b_8                         0                0.916667
     25 b_9                         0                0.916667
     26 b_10                        0                0.916667
     27 b_11                        0                0.916667
     28 b_12                        0                0.916667
     29 b_13                        0                0.916667
     30 b_14                        0                0.888889
     31 b_15                        0                0.861111
